p cnf 20 15
-3 5 -15 8 19 0
-6 -1 -20 17 -4 0
1 18 -16 -9 7 0
-8 -13 9 -1 -3 0
-12 -10 -16 6 -9 0
-20 -2 -4 19 -5 0
15 -13 -19 -6 8 0
-7 -14 15 6 1 0
-12 16 -3 -9 -6 0
-2 7 -17 -1 -18 0
15 4 -16 -18 8 0
15 17 -19 -7 -18 0
-14 1 8 -6 -18 0
-7 16 -18 6 -13 0
-3 2 -19 4 -16 0
